db/data/55671202930943303814804183073032332427.z3.out
-------------------
2500.212613954
